0,212,75,53,230,141,430,346,186,374,124
212,0,412,202,144,283,171,521,169,266,523
75,412,0,537,376,554,117,309,263,382,304
53,202,537,0,467,113,236,107,399,557,418
230,144,376,467,0,82,479,102,60,445,149
141,283,554,113,82,0,118,135,301,490,110
430,171,117,236,479,118,0,144,424,181,301
346,521,309,107,102,135,144,0,407,145,231
186,169,263,399,60,301,424,407,0,296,489
374,266,382,557,445,490,181,145,296,0,116
124,523,304,418,149,110,301,231,489,116,0
